10J3M/DAT/10J3MNNA-18.dat
10 3
24.9288 621.4451
22.2448 494.8311
17.709 313.6087
20.8449 434.5099
22.882 523.5859
24.0248 577.191
30.3443 920.7765
21.0013 441.0546
21.3919 457.6134
28.296 800.6636
5585.2798