10J3M/SOL/10J3MNNA-18.sol
solution status: optimal solution found
objective value:                              89.6201
x#1#1                               0.801892239620924 	(obj:0)
x#1#3                               0.198107760379076 	(obj:0)
x#2#1                                               1 	(obj:0)
x#3#3                                               1 	(obj:0)
x#4#2                                               1 	(obj:0)
x#5#2                                               1 	(obj:0)
x#6#2                               0.925249072734228 	(obj:0)
x#6#3                               0.074750927265772 	(obj:0)
x#7#3                                               1 	(obj:0)
x#8#3                                               1 	(obj:0)
x#9#2                                               1 	(obj:0)
x#10#1                                              1 	(obj:0)
z                                             89.6201 	(obj:1)
